data/solutions/recovery/degenerate/intermediate/flexible/degenerate_intermediate_instance31/21.sol
Elapsed time: 100.12
Upper bound: 13371694.0
Planning weighted value: 1.93536424764e+11
C[0]=13371694.0
C[1]=13352422.0
C[2]=13333673.0
C[3]=13315098.0
C[4]=13311444.0
C[5]=13240097.0
C[6]=13204663.0
C[7]=13146072.0
C[8]=13095076.0
C[9]=13016046.0
C[10]=13000528.0
C[11]=12992593.0
C[12]=12989662.0
C[13]=12922132.0
y[0]=11
y[1]=3
y[2]=4
y[3]=11
y[4]=12
y[5]=8
y[6]=2
y[7]=6
y[8]=2
y[9]=0
y[10]=0
y[11]=11
y[12]=1
y[13]=6
y[14]=11
y[15]=3
y[16]=10
y[17]=12
y[18]=5
y[19]=1
y[20]=0
y[21]=6
y[22]=7
y[23]=4
y[24]=2
y[25]=13
y[26]=12
y[27]=1
y[28]=11
y[29]=9
y[30]=13
y[31]=11
y[32]=2
y[33]=13
y[34]=7
y[35]=1
y[36]=10
y[37]=1
y[38]=5
y[39]=7
y[40]=12
y[41]=3
y[42]=12
y[43]=13
y[44]=10
y[45]=10
y[46]=5
y[47]=12
y[48]=1
y[49]=11
y[50]=9
y[51]=11
y[52]=8
y[53]=2
y[54]=9
y[55]=0
y[56]=9
y[57]=6
y[58]=8
y[59]=13
y[60]=5
y[61]=9
y[62]=10
y[63]=6
y[64]=4
y[65]=1
y[66]=11
y[67]=9
y[68]=2
y[69]=11
y[70]=9
y[71]=1
y[72]=4
y[73]=3
y[74]=10
y[75]=7
y[76]=13
y[77]=3
y[78]=8
y[79]=6
