data/solutions/recovery/degenerate/intermediate/flexible/degenerate_intermediate_instance31/21.log

Log started (V12.6.3.0) Sat Apr 21 20:47:24 2018

New value for default parallel thread count: 1

Problem '/tmp/tmpKBFtW5.pyomo.lp' read.
Read time = 0.01 sec. (1.11 ticks)

Problem name         : /tmp/tmpKBFtW5.pyomo.lp
Objective sense      : Minimize
Variables            :    1136  [Nneg: 1,  Binary: 1120,  General Integer: 15]
Objective nonzeros   :       1
Linear constraints   :     189  [Less: 94,  Equal: 95]
  Nonzeros           :   80213
  RHS nonzeros       :     161

Variables            : Min LB: 0.000000         Max UB: 1.000000       
Objective nonzeros   : Min   : 1.000000         Max   : 1.000000       
Linear constraints   :
  Nonzeros           : Min   : 1.000000         Max   : 8036379.       
  RHS nonzeros       : Min   : 1.000000         Max   : 8.000000       
Tried aggregator 2 times.
MIP Presolve eliminated 80 rows and 66 columns.
Aggregator did 5 substitutions.
Reduced MIP has 104 rows, 1065 columns, and 3052 nonzeros.
Reduced MIP has 1050 binaries, 15 generals, 0 SOSs, and 0 indicators.
Presolve time = 0.01 sec. (14.42 ticks)
Found incumbent of value 5.7873711e+07 after 0.01 sec. (16.47 ticks)
Probing time = 0.00 sec. (2.02 ticks)
Cover probing fixed 0 vars, tightened 27 bounds.
Tried aggregator 2 times.
Aggregator did 14 substitutions.
Reduced MIP has 90 rows, 1051 columns, and 3024 nonzeros.
Reduced MIP has 1050 binaries, 1 generals, 0 SOSs, and 0 indicators.
Presolve time = 0.00 sec. (2.62 ticks)
Probing time = 0.00 sec. (1.94 ticks)
Cover probing fixed 0 vars, tightened 6 bounds.
Clique table members: 75.
MIP emphasis: balance optimality and feasibility.
MIP search method: dynamic search.
Parallel mode: none, using 1 thread.
Root relaxation solution time = 0.00 sec. (1.21 ticks)

        Nodes                                         Cuts/
   Node  Left     Objective  IInf  Best Integer    Best Bound    ItCnt     Gap

*     0+    0                       5.78737e+07        0.0000           100.00%
      0     0   1.31637e+07    21   5.78737e+07   1.31637e+07       42   77.25%
*     0+    0                       2.19172e+07   1.31637e+07            39.94%
      0     0   1.31637e+07    28   2.19172e+07     Fract: 12       62   39.94%
*     0+    0                       1.65241e+07   1.31637e+07            20.34%
      0     0   1.31637e+07    29   1.65241e+07       Cuts: 6      102   20.34%
*     0+    0                       1.57131e+07   1.31637e+07            16.22%
*     0+    0                       1.51099e+07   1.31637e+07            12.88%
      0     2   1.31637e+07    20   1.51099e+07   1.31637e+07      102   12.88%
Elapsed time = 0.05 sec. (71.34 ticks, tree = 0.01 MB, solutions = 4)
*    40+   40                       1.48827e+07   1.31637e+07            11.55%
*    70+   70                       1.48186e+07   1.31637e+07            11.17%
*   100+   84                       1.47950e+07   1.31637e+07            11.03%
*   200+  163                       1.45140e+07   1.31637e+07             9.30%
*   465+  383                       1.43582e+07   1.31637e+07             8.32%
*   466+  381                       1.42772e+07   1.31637e+07             7.80%
*   466+  378                       1.40799e+07   1.31637e+07             6.51%
*   466+  356                       1.40416e+07   1.31637e+07             6.25%
    466   358   1.31637e+07    29   1.40416e+07   1.31637e+07     2708    6.25%
*   467+  357                       1.40119e+07   1.31637e+07             6.05%
*   467+  336                       1.36956e+07   1.31637e+07             3.88%
    467   338   1.31637e+07    23   1.36956e+07   1.31637e+07     2735    3.88%
    468   339   1.31637e+07    26   1.36956e+07   1.31637e+07     3206    3.88%
    469   340   1.31637e+07    29   1.36956e+07   1.31637e+07     3223    3.88%
    470   341   1.31637e+07    27   1.36956e+07   1.31637e+07     3239    3.88%
    471   342   1.31637e+07    27   1.36956e+07   1.31637e+07     3254    3.88%
    472   343   1.31637e+07    29   1.36956e+07   1.31637e+07     3286    3.88%
    473   344   1.31637e+07    26   1.36956e+07   1.31637e+07     3300    3.88%
    474   345   1.31637e+07    26   1.36956e+07   1.31637e+07     3319    3.88%
*   568+  238                       1.35863e+07   1.31637e+07             3.11%
    568   239   1.31637e+07    30   1.35863e+07   1.31637e+07     4003    3.11%
Elapsed time = 0.80 sec. (1097.78 ticks, tree = 0.44 MB, solutions = 15)
*   868+  260                       1.35788e+07   1.31637e+07             3.06%
   1310   469   1.32090e+07    23   1.35788e+07   1.31637e+07     6492    3.06%
   1311   469   1.32112e+07    23   1.35788e+07   1.31637e+07     6493    3.06%
   1312   469   1.32178e+07    23   1.35788e+07   1.31637e+07     6494    3.06%
   1313   469   1.32194e+07    23   1.35788e+07   1.31637e+07     6495    3.06%
   1314   469   1.32228e+07    23   1.35788e+07   1.31637e+07     6496    3.06%
   1315   470   1.32228e+07    20   1.35788e+07   1.31637e+07     6498    3.06%
   1316   471   1.32228e+07    20   1.35788e+07   1.31637e+07     6500    3.06%
   1317   472   1.32228e+07    20   1.35788e+07   1.31637e+07     6502    3.06%
   1318   473   1.32228e+07    22   1.35788e+07   1.31637e+07     6503    3.06%
   1319   473   1.32228e+07    24   1.35788e+07   1.31637e+07     6505    3.06%
Elapsed time = 1.52 sec. (2054.82 ticks, tree = 0.90 MB, solutions = 16)
   3188  1883   1.32243e+07    35   1.35788e+07   1.31637e+07    17772    3.06%
   3189  1884   1.32243e+07    35   1.35788e+07   1.31637e+07    17773    3.06%
   3190  1885   1.32243e+07    35   1.35788e+07   1.31637e+07    17774    3.06%
   3191  1886   1.32243e+07    35   1.35788e+07   1.31637e+07    17775    3.06%
   3192  1887   1.32244e+07    33   1.35788e+07   1.31637e+07    17776    3.06%
   3193  1888   1.32244e+07    33   1.35788e+07   1.31637e+07    17777    3.06%
   3194  1889   1.32269e+07    33   1.35788e+07   1.31637e+07    17778    3.06%
   3195  1890   1.32310e+07    35   1.35788e+07   1.31637e+07    17780    3.06%
   3196  1891   1.32311e+07    35   1.35788e+07   1.31637e+07    17781    3.06%
   3197  1892   1.32311e+07    37   1.35788e+07   1.31637e+07    17783    3.06%
Elapsed time = 2.16 sec. (3011.30 ticks, tree = 4.19 MB, solutions = 16)
   5033  3523   1.33530e+07    32   1.35788e+07   1.31637e+07    31061    3.06%
   5034  3524   1.33532e+07    32   1.35788e+07   1.31637e+07    31062    3.06%
   5035  3525   1.33532e+07    32   1.35788e+07   1.31637e+07    31063    3.06%
   5036  3526   1.33532e+07    32   1.35788e+07   1.31637e+07    31064    3.06%
   5037  3527   1.33540e+07    31   1.35788e+07   1.31637e+07    31065    3.06%
   5038  3528   1.33634e+07    28   1.35788e+07   1.31637e+07    31069    3.06%
   5039  3529   1.33637e+07    29   1.35788e+07   1.31637e+07    31070    3.06%
   5040  3530   1.33642e+07    31   1.35788e+07   1.31637e+07    31071    3.06%
   5041  3531   1.33642e+07    31   1.35788e+07   1.31637e+07    31072    3.06%
   5042  3532   1.33642e+07    31   1.35788e+07   1.31637e+07    31073    3.06%
Elapsed time = 2.79 sec. (3967.23 ticks, tree = 8.80 MB, solutions = 16)
   6899  5274   1.31637e+07    44   1.35788e+07   1.31637e+07    42366    3.06%
   6900  5275   1.31637e+07    44   1.35788e+07   1.31637e+07    42367    3.06%
   6901  5276   1.31637e+07    46   1.35788e+07   1.31637e+07    42370    3.06%
   6902  5277   1.31637e+07    46   1.35788e+07   1.31637e+07    42371    3.06%
   6903  5278   1.31637e+07    46   1.35788e+07   1.31637e+07    42372    3.06%
   6904  5279   1.31637e+07    46   1.35788e+07   1.31637e+07    42375    3.06%
   6905  5280   1.31637e+07    46   1.35788e+07   1.31637e+07    42376    3.06%
   6906  5281   1.31637e+07    46   1.35788e+07   1.31637e+07    42377    3.06%
   6907  5282   1.31637e+07    46   1.35788e+07   1.31637e+07    42379    3.06%
   6908  5283   1.31637e+07    47   1.35788e+07   1.31637e+07    42380    3.06%
Elapsed time = 3.40 sec. (4922.85 ticks, tree = 14.46 MB, solutions = 16)
   8496  6722   1.31637e+07    55   1.35788e+07   1.31637e+07    57945    3.06%
   8497  6723   1.31637e+07    49   1.35788e+07   1.31637e+07    57956    3.06%
   8498  6724   1.31637e+07    48   1.35788e+07   1.31637e+07    57958    3.06%
   8499  6725   1.31637e+07    50   1.35788e+07   1.31637e+07    58030    3.06%
   8500  6726   1.31637e+07    52   1.35788e+07   1.31637e+07    58077    3.06%
   8501  6727   1.31637e+07    54   1.35788e+07   1.31637e+07    58204    3.06%
   8502  6728   1.31637e+07    51   1.35788e+07   1.31637e+07    58206    3.06%
   8503  6729   1.31640e+07    44   1.35788e+07   1.31637e+07    58255    3.06%
   8504  6730   1.31640e+07    53   1.35788e+07   1.31637e+07    58263    3.06%
   8505  6731   1.31640e+07    53   1.35788e+07   1.31637e+07    58264    3.06%
Elapsed time = 4.04 sec. (5912.41 ticks, tree = 19.44 MB, solutions = 16)
*  9768+ 7636                       1.35674e+07   1.31637e+07             2.98%
*  9768+ 7485                       1.35242e+07   1.31637e+07             2.67%
   9768  7487   1.31637e+07    49   1.35242e+07   1.31637e+07    70815    2.67%
   9769  7487   1.34736e+07    36   1.35242e+07   1.31637e+07    71343    2.67%
   9770  7488   1.31637e+07    57   1.35242e+07   1.31637e+07    71577    2.67%
   9771  7489   1.31638e+07    61   1.35242e+07   1.31637e+07    71670    2.67%
   9772  7490   1.31641e+07    61   1.35242e+07   1.31637e+07    71685    2.67%
   9773  7491   1.31642e+07    60   1.35242e+07   1.31637e+07    71693    2.67%
   9774  7492   1.31643e+07    62   1.35242e+07   1.31637e+07    71703    2.67%
   9775  7493   1.31643e+07    60   1.35242e+07   1.31637e+07    71704    2.67%
   9776  7494   1.31643e+07    59   1.35242e+07   1.31637e+07    71705    2.67%
   9777  7495   1.31643e+07    59   1.35242e+07   1.31637e+07    71706    2.67%
Elapsed time = 5.27 sec. (7495.05 ticks, tree = 22.91 MB, solutions = 18)
  11151  8746   1.34841e+07    47   1.35242e+07   1.31637e+07    84348    2.67%
  11152  8745        cutoff         1.35242e+07   1.31637e+07    84353    2.67%
  11153  8744        cutoff         1.35242e+07   1.31637e+07    84715    2.67%
  11154  8745   1.33918e+07    46   1.35242e+07   1.31637e+07    85388    2.67%
  11155  8745   1.34207e+07    42   1.35242e+07   1.31637e+07    85411    2.67%
  11156  8746   1.34907e+07    39   1.35242e+07   1.31637e+07    85452    2.67%
  11157  8745        cutoff         1.35242e+07   1.31637e+07    85480    2.67%
  11158  8744        cutoff         1.35242e+07   1.31637e+07    85481    2.67%
  11159  8743        cutoff         1.35242e+07   1.31637e+07    85826    2.67%
  11160  8742   1.34780e+07    45   1.35242e+07   1.31637e+07    86137    2.67%
Elapsed time = 5.92 sec. (8532.82 ticks, tree = 28.57 MB, solutions = 18)
  12037  9465   1.31770e+07    49   1.35242e+07   1.31637e+07   102495    2.67%
  12038  9466   1.31773e+07    50   1.35242e+07   1.31637e+07   102498    2.67%
  12039  9467   1.31773e+07    49   1.35242e+07   1.31637e+07   102499    2.67%
  12040  9468   1.31776e+07    50   1.35242e+07   1.31637e+07   102503    2.67%
  12041  9469   1.31803e+07    47   1.35242e+07   1.31637e+07   102513    2.67%
  12042  9470   1.31805e+07    47   1.35242e+07   1.31637e+07   102514    2.67%
  12043  9471   1.31807e+07    47   1.35242e+07   1.31637e+07   102515    2.67%
  12044  9472   1.31807e+07    47   1.35242e+07   1.31637e+07   102516    2.67%
  12045  9473   1.31809e+07    47   1.35242e+07   1.31637e+07   102517    2.67%
  12046  9474   1.31809e+07    47   1.35242e+07   1.31637e+07   102518    2.67%
Elapsed time = 6.52 sec. (9488.91 ticks, tree = 32.06 MB, solutions = 18)
  12729 10055   1.31637e+07    39   1.35242e+07   1.31637e+07   115232    2.67%
  12730 10056   1.31637e+07    38   1.35242e+07   1.31637e+07   115260    2.67%
  12731 10057   1.31637e+07    50   1.35242e+07   1.31637e+07   115317    2.67%
  12732 10058   1.31637e+07    44   1.35242e+07   1.31637e+07   115353    2.67%
  12733 10059   1.31637e+07    51   1.35242e+07   1.31637e+07   115522    2.67%
  12734 10060   1.31637e+07    53   1.35242e+07   1.31637e+07   115590    2.67%
  12735 10061   1.31637e+07    57   1.35242e+07   1.31637e+07   115597    2.67%
  12736 10062   1.31637e+07    53   1.35242e+07   1.31637e+07   115598    2.67%
  12737 10063   1.31637e+07    52   1.35242e+07   1.31637e+07   115616    2.67%
  15370 12204   1.31637e+07    43   1.35242e+07   1.31637e+07   160968    2.67%
Elapsed time = 8.85 sec. (13304.94 ticks, tree = 45.77 MB, solutions = 18)
  19640 15954        cutoff         1.35242e+07   1.31637e+07   216650    2.67%
  19641 15953    infeasible         1.35242e+07   1.31637e+07   216650    2.67%
  19642 15952        cutoff         1.35242e+07   1.31637e+07   217125    2.67%
  19643 15953   1.31696e+07    54   1.35242e+07   1.31637e+07   217680    2.67%
  19644 15954   1.31719e+07    56   1.35242e+07   1.31637e+07   217703    2.67%
  19645 15955   1.31721e+07    50   1.35242e+07   1.31637e+07   217705    2.67%
  19646 15956   1.32490e+07    46   1.35242e+07   1.31637e+07   217766    2.67%
  19647 15957   1.32490e+07    44   1.35242e+07   1.31637e+07   217771    2.67%
  19648 15958   1.32490e+07    44   1.35242e+07   1.31637e+07   217773    2.67%
  19649 15959   1.32490e+07    43   1.35242e+07   1.31637e+07   217774    2.67%
Elapsed time = 11.27 sec. (17182.62 ticks, tree = 66.41 MB, solutions = 18)
  22430 18339   1.31637e+07    54   1.35242e+07   1.31637e+07   270763    2.67%
  22431 18340   1.31637e+07    54   1.35242e+07   1.31637e+07   270785    2.67%
  22432 18341   1.31637e+07    49   1.35242e+07   1.31637e+07   270799    2.67%
  22433 18342   1.31637e+07    46   1.35242e+07   1.31637e+07   270818    2.67%
  22434 18343   1.31637e+07    45   1.35242e+07   1.31637e+07   270831    2.67%
  22435 18344   1.31637e+07    45   1.35242e+07   1.31637e+07   270833    2.67%
  22436 18345   1.31637e+07    54   1.35242e+07   1.31637e+07   270853    2.67%
  22437 18346   1.31637e+07    53   1.35242e+07   1.31637e+07   270856    2.67%
  22438 18347   1.31637e+07    52   1.35242e+07   1.31637e+07   270860    2.67%
  22439 18348   1.31637e+07    52   1.35242e+07   1.31637e+07   270866    2.67%
Elapsed time = 13.73 sec. (21008.98 ticks, tree = 82.24 MB, solutions = 18)
  25276 20757   1.31637e+07    72   1.35242e+07   1.31637e+07   325419    2.67%
  25277 20758   1.31637e+07    72   1.35242e+07   1.31637e+07   325424    2.67%
  25278 20759   1.31637e+07    66   1.35242e+07   1.31637e+07   325439    2.67%
  25279 20760   1.31637e+07    61   1.35242e+07   1.31637e+07   325494    2.67%
  25280 20761   1.31637e+07    69   1.35242e+07   1.31637e+07   325517    2.67%
  25281 20762   1.31637e+07    69   1.35242e+07   1.31637e+07   325523    2.67%
  25282 20763   1.31637e+07    68   1.35242e+07   1.31637e+07   325572    2.67%
  25283 20764   1.31637e+07    71   1.35242e+07   1.31637e+07   325578    2.67%
  25284 20765   1.31637e+07    74   1.35242e+07   1.31637e+07   325638    2.67%
  25285 20766   1.32933e+07    55   1.35242e+07   1.31637e+07   325844    2.67%
Elapsed time = 16.13 sec. (24862.17 ticks, tree = 99.06 MB, solutions = 18)
  28433 23640        cutoff         1.35242e+07   1.31637e+07   382763    2.67%
  28434 23641   1.31686e+07    64   1.35242e+07   1.31637e+07   382796    2.67%
  28435 23642   1.31688e+07    63   1.35242e+07   1.31637e+07   382798    2.67%
  28436 23643   1.31688e+07    63   1.35242e+07   1.31637e+07   382799    2.67%
  28437 23644   1.31689e+07    64   1.35242e+07   1.31637e+07   382812    2.67%
  28438 23645   1.31694e+07    63   1.35242e+07   1.31637e+07   382822    2.67%
  28439 23646   1.31695e+07    63   1.35242e+07   1.31637e+07   382827    2.67%
  28440 23647   1.31695e+07    62   1.35242e+07   1.31637e+07   382828    2.67%
  28441 23646        cutoff         1.35242e+07   1.31637e+07   382864    2.67%
  28442 23647   1.31696e+07    58   1.35242e+07   1.31637e+07   382866    2.67%
Elapsed time = 18.56 sec. (28691.19 ticks, tree = 119.24 MB, solutions = 18)
  31480 26366   1.34319e+07    41   1.35242e+07   1.31637e+07   436103    2.67%
  31481 26365        cutoff         1.35242e+07   1.31637e+07   436106    2.67%
  31482 26364        cutoff         1.35242e+07   1.31637e+07   436147    2.67%
  31483 26363        cutoff         1.35242e+07   1.31637e+07   436281    2.67%
  31484 26362    infeasible         1.35242e+07   1.31637e+07   436281    2.67%
  31485 26363   1.31701e+07    57   1.35242e+07   1.31637e+07   436780    2.67%
  31486 26364   1.31701e+07    59   1.35242e+07   1.31637e+07   436781    2.67%
  31487 26365   1.31701e+07    55   1.35242e+07   1.31637e+07   436782    2.67%
  31488 26366   1.31725e+07    45   1.35242e+07   1.31637e+07   436871    2.67%
  31489 26367   1.31725e+07    44   1.35242e+07   1.31637e+07   436874    2.67%
Elapsed time = 21.01 sec. (32557.08 ticks, tree = 138.37 MB, solutions = 18)
  34028 28539   1.32679e+07    68   1.35242e+07   1.31637e+07   491849    2.67%
  34029 28540   1.32706e+07    73   1.35242e+07   1.31637e+07   491861    2.67%
  34030 28541   1.32716e+07    75   1.35242e+07   1.31637e+07   491865    2.67%
  34031 28542   1.32729e+07    74   1.35242e+07   1.31637e+07   491871    2.67%
  34032 28543   1.32756e+07    73   1.35242e+07   1.31637e+07   491881    2.67%
  34033 28544   1.33050e+07    74   1.35242e+07   1.31637e+07   491903    2.67%
  34034 28545   1.33051e+07    72   1.35242e+07   1.31637e+07   491904    2.67%
  34035 28546   1.33058e+07    64   1.35242e+07   1.31637e+07   491907    2.67%
  34036 28547   1.33058e+07    63   1.35242e+07   1.31637e+07   491908    2.67%
  34037 28547   1.33073e+07    71   1.35242e+07   1.31637e+07   491912    2.67%
Elapsed time = 23.48 sec. (36377.00 ticks, tree = 153.80 MB, solutions = 18)
  36640 30738   1.31651e+07    45   1.35242e+07   1.31637e+07   551986    2.67%
  36641 30739   1.33619e+07    29   1.35242e+07   1.31637e+07   552021    2.67%
  36642 30738        cutoff         1.35242e+07   1.31637e+07   552023    2.67%
  36643 30737        cutoff         1.35242e+07   1.31637e+07   552039    2.67%
  36644 30738   1.31648e+07    66   1.35242e+07   1.31637e+07   552435    2.67%
  36645 30739   1.31648e+07    65   1.35242e+07   1.31637e+07   552437    2.67%
  36646 30740   1.31648e+07    64   1.35242e+07   1.31637e+07   552446    2.67%
  36647 30741   1.31650e+07    62   1.35242e+07   1.31637e+07   552473    2.67%
  36648 30742   1.31650e+07    61   1.35242e+07   1.31637e+07   552474    2.67%
  36649 30743   1.31650e+07    54   1.35242e+07   1.31637e+07   552476    2.67%
Elapsed time = 25.90 sec. (40217.60 ticks, tree = 169.29 MB, solutions = 18)
  38875 32600   1.31637e+07    58   1.35242e+07   1.31637e+07   608197    2.67%
  38876 32601   1.31637e+07    63   1.35242e+07   1.31637e+07   608364    2.67%
  38877 32602   1.31637e+07    62   1.35242e+07   1.31637e+07   608365    2.67%
  38878 32603   1.31637e+07    61   1.35242e+07   1.31637e+07   608475    2.67%
  38879 32604   1.31637e+07    69   1.35242e+07   1.31637e+07   608693    2.67%
  38880 32605   1.31637e+07    70   1.35242e+07   1.31637e+07   608696    2.67%
  38881 32606   1.31637e+07    69   1.35242e+07   1.31637e+07   608698    2.67%
  38882 32607   1.31637e+07    69   1.35242e+07   1.31637e+07   608699    2.67%
  38883 32608   1.31637e+07    70   1.35242e+07   1.31637e+07   608710    2.67%
  38884 32609   1.31637e+07    73   1.35242e+07   1.31637e+07   608736    2.67%
Elapsed time = 29.27 sec. (44063.67 ticks, tree = 182.50 MB, solutions = 18)
  40346 33688   1.31641e+07    53   1.35242e+07   1.31637e+07   668449    2.67%
  40347 33689   1.31641e+07    60   1.35242e+07   1.31637e+07   668457    2.67%
  40348 33690   1.31641e+07    58   1.35242e+07   1.31637e+07   668459    2.67%
  40349 33691   1.31641e+07    58   1.35242e+07   1.31637e+07   668461    2.67%
  40350 33692   1.31641e+07    58   1.35242e+07   1.31637e+07   668462    2.67%
  40351 33693   1.31863e+07    43   1.35242e+07   1.31637e+07   668538    2.67%
  40352 33694   1.31905e+07    39   1.35242e+07   1.31637e+07   668543    2.67%
  40353 33695   1.31905e+07    49   1.35242e+07   1.31637e+07   668609    2.67%
  40354 33696   1.31905e+07    39   1.35242e+07   1.31637e+07   668616    2.67%
  40355 33697   1.32657e+07    30   1.35242e+07   1.31637e+07   668622    2.67%
Elapsed time = 32.92 sec. (47904.57 ticks, tree = 191.17 MB, solutions = 18)
  42595 35442   1.31682e+07    54   1.35242e+07   1.31637e+07   724217    2.67%
  42596 35443   1.32926e+07    40   1.35242e+07   1.31637e+07   724258    2.67%
  42597 35444   1.32983e+07    36   1.35242e+07   1.31637e+07   724259    2.67%
  42598 35445   1.33664e+07    30   1.35242e+07   1.31637e+07   724273    2.67%
  42599 35445   1.33664e+07    31   1.35242e+07   1.31637e+07   724295    2.67%
  42600 35444        cutoff         1.35242e+07   1.31637e+07   724298    2.67%
  42601 35443    infeasible         1.35242e+07   1.31637e+07   724298    2.67%
  42602 35442        cutoff         1.35242e+07   1.31637e+07   724400    2.67%
  42603 35443   1.32085e+07    44   1.35242e+07   1.31637e+07   724714    2.67%
  42604 35444   1.32760e+07    50   1.35242e+07   1.31637e+07   724748    2.67%
Elapsed time = 37.03 sec. (51770.40 ticks, tree = 203.58 MB, solutions = 18)
  44721 37127   1.32431e+07    34   1.35242e+07   1.31637e+07   785125    2.67%
  44722 37128   1.32431e+07    34   1.35242e+07   1.31637e+07   785128    2.67%
  44723 37129   1.32541e+07    30   1.35242e+07   1.31637e+07   785165    2.67%
  44724 37130   1.32803e+07    36   1.35242e+07   1.31637e+07   785175    2.67%
  44725 37131   1.32803e+07    34   1.35242e+07   1.31637e+07   785176    2.67%
  44726 37132   1.32926e+07    32   1.35242e+07   1.31637e+07   785181    2.67%
  44727 37131        cutoff         1.35242e+07   1.31637e+07   785184    2.67%
  44728 37130        cutoff         1.35242e+07   1.31637e+07   785193    2.67%
  44729 37129        cutoff         1.35242e+07   1.31637e+07   785342    2.67%
  44730 37130   1.32437e+07    50   1.35242e+07   1.31637e+07   785629    2.67%
Elapsed time = 40.73 sec. (55610.99 ticks, tree = 215.61 MB, solutions = 18)
  46931 38816        cutoff         1.35242e+07   1.31637e+07   839368    2.67%
  46932 38815    infeasible         1.35242e+07   1.31637e+07   839368    2.67%
  46933 38814        cutoff         1.35242e+07   1.31637e+07   839621    2.67%
  46934 38813    infeasible         1.35242e+07   1.31637e+07   839621    2.67%
  46935 38812    infeasible         1.35242e+07   1.31637e+07   839621    2.67%
  46936 38811    infeasible         1.35242e+07   1.31637e+07   839621    2.67%
  46937 38810    infeasible         1.35242e+07   1.31637e+07   839621    2.67%
  46938 38809    infeasible         1.35242e+07   1.31637e+07   839621    2.67%
  46939 38808    infeasible         1.35242e+07   1.31637e+07   839621    2.67%
  46940 38807    infeasible         1.35242e+07   1.31637e+07   839621    2.67%
Elapsed time = 44.30 sec. (59441.93 ticks, tree = 227.59 MB, solutions = 18)
  48891 40271   1.31637e+07    61   1.35242e+07   1.31637e+07   899205    2.67%
  48892 40272   1.31637e+07    61   1.35242e+07   1.31637e+07   899206    2.67%
  48893 40273   1.31637e+07    62   1.35242e+07   1.31637e+07   899218    2.67%
  48894 40274   1.31637e+07    61   1.35242e+07   1.31637e+07   899223    2.67%
  48895 40275   1.31637e+07    61   1.35242e+07   1.31637e+07   899231    2.67%
  48896 40276   1.31637e+07    59   1.35242e+07   1.31637e+07   899232    2.67%
  48897 40277   1.31637e+07    54   1.35242e+07   1.31637e+07   899235    2.67%
  48898 40278   1.31637e+07    57   1.35242e+07   1.31637e+07   899241    2.67%
  48899 40279   1.31637e+07    52   1.35242e+07   1.31637e+07   899245    2.67%
  48900 40280   1.31637e+07    53   1.35242e+07   1.31637e+07   899251    2.67%
Elapsed time = 47.98 sec. (63272.21 ticks, tree = 238.18 MB, solutions = 18)
  50811 41750        cutoff         1.35242e+07   1.31637e+07   959998    2.67%
  50812 41751   1.31645e+07    60   1.35242e+07   1.31637e+07   960374    2.67%
  50813 41752   1.31646e+07    58   1.35242e+07   1.31637e+07   960383    2.67%
  50814 41753   1.31650e+07    47   1.35242e+07   1.31637e+07   960408    2.67%
  50815 41754   1.31652e+07    45   1.35242e+07   1.31637e+07   960428    2.67%
  50816 41755   1.31763e+07    46   1.35242e+07   1.31637e+07   960479    2.67%
  50817 41756   1.31764e+07    48   1.35242e+07   1.31637e+07   960480    2.67%
  50818 41757   1.31778e+07    50   1.35242e+07   1.31637e+07   960499    2.67%
  50819 41757   1.33761e+07    38   1.35242e+07   1.31637e+07   960534    2.67%
  50820 41758   1.31784e+07    49   1.35242e+07   1.31637e+07   960541    2.67%
Elapsed time = 51.68 sec. (67120.99 ticks, tree = 248.79 MB, solutions = 18)
  53077 43392   1.31637e+07    74   1.35242e+07   1.31637e+07  1019939    2.67%
  53078 43393   1.31637e+07    73   1.35242e+07   1.31637e+07  1019943    2.67%
  53079 43394   1.31640e+07    64   1.35242e+07   1.31637e+07  1020024    2.67%
  53080 43395   1.31686e+07    75   1.35242e+07   1.31637e+07  1020098    2.67%
  53081 43396   1.31701e+07    75   1.35242e+07   1.31637e+07  1020109    2.67%
  53082 43397   1.31708e+07    70   1.35242e+07   1.31637e+07  1020122    2.67%
  53083 43398   1.31780e+07    60   1.35242e+07   1.31637e+07  1020177    2.67%
  53084 43399   1.31787e+07    64   1.35242e+07   1.31637e+07  1020192    2.67%
  53085 43400   1.31787e+07    64   1.35242e+07   1.31637e+07  1020193    2.67%
  53086 43401   1.31787e+07    69   1.35242e+07   1.31637e+07  1020196    2.67%
Elapsed time = 55.34 sec. (70969.24 ticks, tree = 260.60 MB, solutions = 18)
  54987 44838   1.31637e+07    65   1.35242e+07   1.31637e+07  1076881    2.67%
  54988 44839   1.31637e+07    62   1.35242e+07   1.31637e+07  1076926    2.67%
  54989 44840   1.31637e+07    61   1.35242e+07   1.31637e+07  1076929    2.67%
  54990 44839        cutoff         1.35242e+07   1.31637e+07  1077311    2.67%
  54991 44840   1.34516e+07    26   1.35242e+07   1.31637e+07  1077530    2.67%
  54992 44841   1.34516e+07    26   1.35242e+07   1.31637e+07  1077538    2.67%
  54993 44840   1.34516e+07    26   1.35242e+07   1.31637e+07  1077541    2.67%
  54994 44839        cutoff         1.35242e+07   1.31637e+07  1077542    2.67%
  54995 44838        cutoff         1.35242e+07   1.31637e+07  1077730    2.67%
  54996 44839   1.31637e+07    63   1.35242e+07   1.31637e+07  1078040    2.67%
Elapsed time = 59.04 sec. (74859.55 ticks, tree = 270.90 MB, solutions = 18)
  57104 46482   1.31639e+07    68   1.35242e+07   1.31637e+07  1136501    2.67%
  57105 46483   1.31641e+07    60   1.35242e+07   1.31637e+07  1136533    2.67%
  57106 46484   1.31642e+07    65   1.35242e+07   1.31637e+07  1136538    2.67%
  57107 46485   1.31914e+07    51   1.35242e+07   1.31637e+07  1136667    2.67%
  57108 46486   1.32797e+07    43   1.35242e+07   1.31637e+07  1136697    2.67%
  57109 46487   1.34075e+07    35   1.35242e+07   1.31637e+07  1136715    2.67%
  57110 46487   1.34075e+07    38   1.35242e+07   1.31637e+07  1136730    2.67%
  57111 46486        cutoff         1.35242e+07   1.31637e+07  1136739    2.67%
  57112 46486   1.31791e+07    54   1.35242e+07   1.31637e+07  1137148    2.67%
  57113 46487   1.31791e+07    47   1.35242e+07   1.31637e+07  1137157    2.67%
Elapsed time = 62.74 sec. (78731.25 ticks, tree = 282.66 MB, solutions = 18)
  59520 48405   1.31637e+07    51   1.35242e+07   1.31637e+07  1194294    2.67%
  59521 48406   1.31637e+07    64   1.35242e+07   1.31637e+07  1194403    2.67%
  59522 48407   1.31637e+07    62   1.35242e+07   1.31637e+07  1194407    2.67%
  59523 48408   1.31637e+07    60   1.35242e+07   1.31637e+07  1194411    2.67%
  59524 48409   1.31637e+07    50   1.35242e+07   1.31637e+07  1194468    2.67%
  59525 48410   1.31637e+07    50   1.35242e+07   1.31637e+07  1194473    2.67%
  59526 48411   1.31637e+07    51   1.35242e+07   1.31637e+07  1194505    2.67%
  59527 48412   1.31637e+07    48   1.35242e+07   1.31637e+07  1194523    2.67%
  59528 48413   1.31637e+07    56   1.35242e+07   1.31637e+07  1194537    2.67%
  59529 48414   1.31637e+07    49   1.35242e+07   1.31637e+07  1194542    2.67%
Elapsed time = 66.38 sec. (82585.41 ticks, tree = 296.20 MB, solutions = 18)
* 60168+48438                       1.35147e+07   1.31637e+07             2.60%
  61820 49782   1.31637e+07    77   1.35147e+07   1.31637e+07  1244148    2.60%
  61821 49783   1.31637e+07    75   1.35147e+07   1.31637e+07  1244180    2.60%
  61822 49784   1.31637e+07    56   1.35147e+07   1.31637e+07  1244211    2.60%
  61823 49785   1.31686e+07    62   1.35147e+07   1.31637e+07  1244376    2.60%
  61824 49786   1.31718e+07    63   1.35147e+07   1.31637e+07  1244387    2.60%
  61825 49787   1.31794e+07    54   1.35147e+07   1.31637e+07  1244414    2.60%
  61826 49788   1.31867e+07    51   1.35147e+07   1.31637e+07  1244419    2.60%
  61827 49787        cutoff         1.35147e+07   1.31637e+07  1244459    2.60%
  61828 49786        cutoff         1.35147e+07   1.31637e+07  1244486    2.60%
  61829 49787   1.31637e+07    66   1.35147e+07   1.31637e+07  1244854    2.60%
Elapsed time = 69.94 sec. (86442.63 ticks, tree = 306.26 MB, solutions = 19)
  63714 51272   1.31637e+07    57   1.35147e+07   1.31637e+07  1308704    2.60%
  63715 51273   1.31645e+07    49   1.35147e+07   1.31637e+07  1308909    2.60%
  63716 51274   1.31645e+07    45   1.35147e+07   1.31637e+07  1308911    2.60%
  63717 51275   1.31679e+07    45   1.35147e+07   1.31637e+07  1308924    2.60%
  63718 51276   1.31679e+07    41   1.35147e+07   1.31637e+07  1308926    2.60%
  63719 51276   1.31727e+07    39   1.35147e+07   1.31637e+07  1308937    2.60%
  63720 51277   1.31727e+07    39   1.35147e+07   1.31637e+07  1308938    2.60%
  63721 51278   1.31762e+07    45   1.35147e+07   1.31637e+07  1308949    2.60%
  63722 51279   1.31762e+07    42   1.35147e+07   1.31637e+07  1308952    2.60%
  63723 51280   1.31832e+07    37   1.35147e+07   1.31637e+07  1308991    2.60%
Elapsed time = 73.70 sec. (90274.05 ticks, tree = 316.84 MB, solutions = 19)
  65619 52672   1.33167e+07    31   1.35147e+07   1.31637e+07  1364700    2.60%
  65620 52671        cutoff         1.35147e+07   1.31637e+07  1364703    2.60%
  65621 52672   1.34625e+07    24   1.35147e+07   1.31637e+07  1364712    2.60%
  65622 52673   1.34625e+07    24   1.35147e+07   1.31637e+07  1364713    2.60%
  65623 52674   1.34625e+07    17   1.35147e+07   1.31637e+07  1364719    2.60%
  65624 52675   1.34625e+07    17   1.35147e+07   1.31637e+07  1364721    2.60%
  65625 52676   1.34625e+07    17   1.35147e+07   1.31637e+07  1364723    2.60%
  65626 52677   1.34625e+07    17   1.35147e+07   1.31637e+07  1364726    2.60%
  65627 52678   1.34625e+07    16   1.35147e+07   1.31637e+07  1364731    2.60%
  65628 52679   1.34625e+07    16   1.35147e+07   1.31637e+07  1364732    2.60%
Elapsed time = 77.30 sec. (94092.77 ticks, tree = 326.84 MB, solutions = 19)
  68258 54744        cutoff         1.35147e+07   1.31637e+07  1425933    2.60%
  68259 54743        cutoff         1.35147e+07   1.31637e+07  1425941    2.60%
  68260 54744   1.33219e+07    44   1.35147e+07   1.31637e+07  1426813    2.60%
  68261 54745   1.33219e+07    45   1.35147e+07   1.31637e+07  1426851    2.60%
  68262 54746   1.33219e+07    37   1.35147e+07   1.31637e+07  1426908    2.60%
  68263 54747   1.33483e+07    41   1.35147e+07   1.31637e+07  1426961    2.60%
  68264 54748   1.33741e+07    39   1.35147e+07   1.31637e+07  1426972    2.60%
  68265 54749   1.33821e+07    33   1.35147e+07   1.31637e+07  1426974    2.60%
  68266 54748        cutoff         1.35147e+07   1.31637e+07  1427009    2.60%
  68267 54749   1.33821e+07    31   1.35147e+07   1.31637e+07  1427012    2.60%
Elapsed time = 81.00 sec. (97974.71 ticks, tree = 341.49 MB, solutions = 19)
* 68968+50594                       1.34300e+07   1.31637e+07             1.98%
* 69868+51004                       1.34191e+07   1.31637e+07             1.90%
  70534 51552   1.31996e+07    46   1.34191e+07   1.31637e+07  1473170    1.90%
  70535 51552   1.31996e+07    44   1.34191e+07   1.31637e+07  1473199    1.90%
  70536 51552   1.32284e+07    39   1.34191e+07   1.31637e+07  1473206    1.90%
  70537 51553   1.32862e+07    36   1.34191e+07   1.31637e+07  1473208    1.90%
  70538 51554   1.32862e+07    35   1.34191e+07   1.31637e+07  1473214    1.90%
  70539 51555   1.32958e+07    26   1.34191e+07   1.31637e+07  1473273    1.90%
  70540 51556   1.32958e+07    28   1.34191e+07   1.31637e+07  1473275    1.90%
  70541 51557   1.32958e+07    28   1.34191e+07   1.31637e+07  1473276    1.90%
  70542 51558   1.33504e+07    19   1.34191e+07   1.31637e+07  1473280    1.90%
  70543 51557        cutoff         1.34191e+07   1.31637e+07  1473284    1.90%
Elapsed time = 84.46 sec. (101802.52 ticks, tree = 322.71 MB, solutions = 21)
  73028 53507   1.31637e+07    46   1.34191e+07   1.31637e+07  1533077    1.90%
  73029 53508   1.31637e+07    50   1.34191e+07   1.31637e+07  1533157    1.90%
  73030 53509   1.31637e+07    46   1.34191e+07   1.31637e+07  1533173    1.90%
  73031 53510   1.31637e+07    45   1.34191e+07   1.31637e+07  1533213    1.90%
  73032 53511   1.31637e+07    48   1.34191e+07   1.31637e+07  1533327    1.90%
  73033 53512   1.31637e+07    41   1.34191e+07   1.31637e+07  1533337    1.90%
  73034 53513   1.31637e+07    45   1.34191e+07   1.31637e+07  1533444    1.90%
  73035 53514   1.31637e+07    42   1.34191e+07   1.31637e+07  1533578    1.90%
  73036 53515   1.31637e+07    44   1.34191e+07   1.31637e+07  1533651    1.90%
  73037 53516   1.31637e+07    41   1.34191e+07   1.31637e+07  1533695    1.90%
Elapsed time = 88.16 sec. (105650.80 ticks, tree = 336.44 MB, solutions = 21)
* 75068+54844                       1.34122e+07   1.31637e+07             1.85%
* 75168+49992                       1.33717e+07   1.31637e+07             1.56%
  75468 50237   1.31650e+07    37   1.33717e+07   1.31637e+07  1575752    1.56%
  75469 50238   1.31651e+07    38   1.33717e+07   1.31637e+07  1575762    1.56%
  75470 50239   1.31652e+07    38   1.33717e+07   1.31637e+07  1575766    1.56%
  75471 50240   1.31652e+07    37   1.33717e+07   1.31637e+07  1575771    1.56%
  75472 50241   1.31652e+07    37   1.33717e+07   1.31637e+07  1575773    1.56%
  75473 50242   1.31652e+07    36   1.33717e+07   1.31637e+07  1575776    1.56%
  75474 50243   1.31652e+07    36   1.33717e+07   1.31637e+07  1575778    1.56%
  75475 50244   1.31868e+07    32   1.33717e+07   1.31637e+07  1575818    1.56%
  75476 50245   1.31881e+07    33   1.33717e+07   1.31637e+07  1575824    1.56%
  75477 50246   1.31891e+07    35   1.33717e+07   1.31637e+07  1575831    1.56%
Elapsed time = 91.98 sec. (110119.37 ticks, tree = 319.06 MB, solutions = 23)
  76668 51236   1.31637e+07    36   1.33717e+07   1.31637e+07  1594078    1.56%
  76669 51237   1.31637e+07    37   1.33717e+07   1.31637e+07  1594168    1.56%
  76670 51238   1.31637e+07    37   1.33717e+07   1.31637e+07  1594175    1.56%
  76671 51239   1.31637e+07    37   1.33717e+07   1.31637e+07  1594197    1.56%
  76672 51240   1.31637e+07    35   1.33717e+07   1.31637e+07  1594200    1.56%
  76673 51241   1.31637e+07    43   1.33717e+07   1.31637e+07  1594241    1.56%
  76674 51242   1.31637e+07    40   1.33717e+07   1.31637e+07  1594243    1.56%
  76675 51243   1.31637e+07    40   1.33717e+07   1.31637e+07  1594263    1.56%
  76676 51244   1.31637e+07    38   1.33717e+07   1.31637e+07  1594265    1.56%
  76677 51245   1.31637e+07    38   1.33717e+07   1.31637e+07  1594291    1.56%
Elapsed time = 94.96 sec. (114068.08 ticks, tree = 326.01 MB, solutions = 23)
  79600 53715        cutoff         1.33717e+07   1.31637e+07  1632113    1.56%
  79601 53716   1.31637e+07    34   1.33717e+07   1.31637e+07  1632117    1.56%
  79602 53717   1.31637e+07    34   1.33717e+07   1.31637e+07  1632118    1.56%
  79603 53718   1.31637e+07    36   1.33717e+07   1.31637e+07  1632122    1.56%
  79604 53719   1.31637e+07    37   1.33717e+07   1.31637e+07  1632129    1.56%
  79605 53720   1.31637e+07    37   1.33717e+07   1.31637e+07  1632133    1.56%
  79606 53721   1.31637e+07    37   1.33717e+07   1.31637e+07  1632134    1.56%
  79607 53722   1.31637e+07    41   1.33717e+07   1.31637e+07  1632142    1.56%
  79608 53723   1.31637e+07    39   1.33717e+07   1.31637e+07  1632144    1.56%
  79609 53722        cutoff         1.33717e+07   1.31637e+07  1632182    1.56%
Elapsed time = 98.30 sec. (117890.48 ticks, tree = 343.16 MB, solutions = 23)

Cover cuts applied:  425
Mixed integer rounding cuts applied:  16
Zero-half cuts applied:  2
Gomory fractional cuts applied:  7

Root node processing (before b&c):
  Real time             =    0.05 sec. (71.44 ticks)
Sequential b&c:
  Real time             =   99.95 sec. (119676.07 ticks)
                          ------------
Total (root+branch&cut) =  100.00 sec. (119747.51 ticks)

Solution pool: 23 solutions saved.

MIP - Time limit exceeded, integer feasible:  Objective =  1.3371694000e+07
Current MIP best bound =  1.3163658000e+07 (gap = 208036, 1.56%)
Solution time =  100.00 sec.  Iterations = 1654722  Nodes = 80996 (54789)
Deterministic time = 119747.51 ticks  (1197.47 ticks/sec)


Incumbent solution written to file '/tmp/tmpsVT1JX.cplex.sol'.
